TP1/modelo/tp1.sol
Problem:    tp1
Rows:       8
Columns:    2
Non-zeros:  14
Status:     OPTIMAL
Objective:  z = 75000000 (MAXimum)

   No.   Row name   St   Activity     Lower bound   Upper bound    Marginal
------ ------------ -- ------------- ------------- ------------- -------------
     1 z            B        7.5e+07                             
     2 disp_des     B             48                          48 
     3 disp_recu[CO]
                    B             74                          75 
     4 disp_recu[AB]
                    NU           100                         100        750000 
     5 disp_recu[MR]
                    B            436                         500 
     6 disp_recu[ED]
                    B             70                         200 
     7 dem_des[DN]  NL            22            22                       < eps
     8 dem_des[DE]  B             26            15               

   No. Column name  St   Activity     Lower bound   Upper bound    Marginal
------ ------------ -- ------------- ------------- ------------- -------------
     1 D[DN]        B             22             0               
     2 D[DE]        B             26             0               

Karush-Kuhn-Tucker optimality conditions:

KKT.PE: max.abs.err = 0.00e+00 on row 0
        max.rel.err = 0.00e+00 on row 0
        High quality

KKT.PB: max.abs.err = 0.00e+00 on row 0
        max.rel.err = 0.00e+00 on row 0
        High quality

KKT.DE: max.abs.err = 0.00e+00 on column 0
        max.rel.err = 0.00e+00 on column 0
        High quality

KKT.DB: max.abs.err = 0.00e+00 on row 0
        max.rel.err = 0.00e+00 on row 0
        High quality

End of output
